results_rootrelaxation/bin024_050_017.srr.sol
solution status: optimal solution found
objective value:                                    0
_var1505_                          0.0955864675675804 	(obj:0)
_var6988_                          0.0742012729639042 	(obj:0)
_var7003_                           0.225068616891092 	(obj:0)
_var7007_                          0.0335183424080939 	(obj:0)
_var7008_                           0.071552967177571 	(obj:0)
_var7010_                           0.156062982888988 	(obj:0)
_var7012_                          0.0205726013697434 	(obj:0)
_var7013_                           0.269791216413885 	(obj:0)
_var7016_                          0.0297940851994151 	(obj:0)
_var7017_                          0.0793385745506137 	(obj:0)
_var7021_                          0.0414963565206044 	(obj:0)
_var7024_                           0.103006739460736 	(obj:0)
_var7025_                           0.232181052796114 	(obj:0)
_var7031_                           0.109308233895524 	(obj:0)
_var7042_                            0.10210240085427 	(obj:0)
_var7052_                           0.123980353250016 	(obj:0)
_var7061_                          0.0601924777768332 	(obj:0)
_var7063_                           0.116017288790025 	(obj:0)
_var7073_                           0.105735542491321 	(obj:0)
_var7082_                         0.00783613085114876 	(obj:0)
_var7084_                          0.0479818615957521 	(obj:0)
_var7087_                           0.027035767251881 	(obj:0)
_var7088_                          0.0604496188967946 	(obj:0)
_var7089_                          0.0606829630511194 	(obj:0)
_var7090_                           0.100980246408496 	(obj:0)
_var7092_                          0.0623579056768273 	(obj:0)
_var7094_                           0.156650570940535 	(obj:0)
_var7095_                           0.136328481068758 	(obj:0)
_var7096_                           0.144738573804108 	(obj:0)
_var7099_                          0.0221601377581421 	(obj:0)
_var7100_                           0.181305104638735 	(obj:0)
_var7102_                          0.0498014765865786 	(obj:0)
_var7103_                           0.120807779546293 	(obj:0)
_var7105_                           0.037139987120378 	(obj:0)
_var7106_                           0.280497055323877 	(obj:0)
_var7107_                          0.0206922264678525 	(obj:0)
_var7110_                           0.126019380384368 	(obj:0)
_var7111_                          0.0549466960015476 	(obj:0)
_var7112_                           0.258162029423446 	(obj:0)
_var7116_                          0.0891388016841964 	(obj:0)
_var7117_                           0.103059774056079 	(obj:0)
_var7118_                          0.0605985818574868 	(obj:0)
_var7121_                          0.0222889127081932 	(obj:0)
_var7125_                           0.122993420931732 	(obj:0)
_var7130_                          0.0404426535773556 	(obj:0)
_var7134_                          0.0810671677097786 	(obj:0)
_var7136_                            0.17183336303761 	(obj:0)
_var7139_                           0.123336172651491 	(obj:0)
_var7140_                         0.000799831117132499 	(obj:0)
_var7143_                           0.183046591671132 	(obj:0)
_var7144_                           0.110992714328758 	(obj:0)
_var7145_                          0.0386104887992166 	(obj:0)
_var7146_                           0.078108284365725 	(obj:0)
_var7147_                          0.0395162831523787 	(obj:0)
_var7148_                           0.185699908821528 	(obj:0)
_var7149_                           0.243691083080778 	(obj:0)
_var7151_                           0.183401052305369 	(obj:0)
_var7155_                           0.151530182345102 	(obj:0)
_var7156_                          0.0548273405871164 	(obj:0)
_var7157_                          0.0571470838768753 	(obj:0)
_var7160_                          0.0868755994356491 	(obj:0)
_var7161_                          0.0299754811449523 	(obj:0)
_var7164_                           0.162062436257328 	(obj:0)
_var7166_                          0.0637953612008519 	(obj:0)
_var7167_                          0.0281147336609329 	(obj:0)
_var7169_                          0.0353594478915505 	(obj:0)
_var7170_                           0.397723337492511 	(obj:0)
_var7177_                           0.450001935885192 	(obj:0)
_var7178_                          0.0718769048541926 	(obj:0)
_var7180_                          0.0239526202278676 	(obj:0)
_var7181_                           0.211144878147341 	(obj:0)
_var7183_                           0.159743748693299 	(obj:0)
_var7188_                          0.0439892562566682 	(obj:0)
_var7195_                           0.211782038375643 	(obj:0)
_var7199_                           0.244320007676474 	(obj:0)
_var7203_                          0.0254926108233999 	(obj:0)
_var7205_                           0.101389630563564 	(obj:0)
_var7211_                          0.0246941281199158 	(obj:0)
_var7214_                           0.130742922047781 	(obj:0)
_var7215_                           0.198496584993128 	(obj:0)
_var7217_                           0.126819929265564 	(obj:0)
_var7218_                          0.0170540774887308 	(obj:0)
_var7219_                           0.102411805645477 	(obj:0)
_var7220_                           0.252377794177816 	(obj:0)
_var7222_                          0.0371745122704749 	(obj:0)
_var7223_                          0.0643564327429594 	(obj:0)
_var7224_                          0.0339359722872847 	(obj:0)
_var7227_                          0.0988740102603815 	(obj:0)
_var7229_                           0.124781749262431 	(obj:0)
_var7234_                           0.153888112764281 	(obj:0)
_var7235_                           0.329750962793562 	(obj:0)
_var7236_                          0.0860030670585724 	(obj:0)
_var7240_                          0.0534225739295667 	(obj:0)
_var7241_                           0.195060519341123 	(obj:0)
_var7246_                            0.12339959602359 	(obj:0)
_var7251_                           0.140864370611929 	(obj:0)
_var7253_                            0.13285729273928 	(obj:0)
_var7254_                           0.211744767029492 	(obj:0)
_var7257_                          0.0413732980765251 	(obj:0)
_var7258_                           0.018198224424024 	(obj:0)
_var7259_                          0.0739659372345871 	(obj:0)
_var7260_                           0.139924868586488 	(obj:0)
_var7262_                          0.0133029120135154 	(obj:0)
_var7265_                          0.0304513991251127 	(obj:0)
_var7267_                           0.218338852196759 	(obj:0)
_var7268_                          0.0842506801601305 	(obj:0)
_var7271_                           0.134824270105703 	(obj:0)
_var7274_                          0.0140060776794505 	(obj:0)
_var7275_                          0.0612335111977696 	(obj:0)
_var7276_                           0.149319559302775 	(obj:0)
_var7277_                           0.129863889926989 	(obj:0)
_var7278_                          0.0198243248499312 	(obj:0)
_var7279_                           0.028252256168503 	(obj:0)
_var7281_                           0.128406184404586 	(obj:0)
_var7283_                          0.0547421661668571 	(obj:0)
_var7285_                          0.0962085553472392 	(obj:0)
_var7286_                           0.108298973972866 	(obj:0)
_var7287_                          0.0678315991658567 	(obj:0)
_var7288_                          0.0462342177365158 	(obj:0)
_var7291_                           0.211143974991826 	(obj:0)
_var7292_                          0.0370234206961487 	(obj:0)
_var7293_                          0.0810721966926033 	(obj:0)
_var7294_                          0.0227381317569672 	(obj:0)
_var7297_                          0.0105908964827198 	(obj:0)
_var7298_                           0.111445800428253 	(obj:0)
_var7299_                          0.0883463377791896 	(obj:0)
_var7303_                          0.0184313104639943 	(obj:0)
_var7304_                          0.0332899861987058 	(obj:0)
_var7306_                           0.328027167010089 	(obj:0)
_var7307_                          0.0313518871586742 	(obj:0)
_var7308_                           0.091536484977685 	(obj:0)
_var7309_                          0.0782262079761024 	(obj:0)
_var7310_                          0.0233836925403333 	(obj:0)
_var7311_                          0.0777761455374523 	(obj:0)
_var7313_                           0.148314552155597 	(obj:0)
_var7315_                          0.0117481445743337 	(obj:0)
_var7316_                            0.10489227185432 	(obj:0)
_var7317_                         0.00402357839601782 	(obj:0)
_var7318_                          0.0748286279566518 	(obj:0)
_var7319_                          0.0122733446233025 	(obj:0)
_var7321_                           0.162764794057837 	(obj:0)
_var7322_                           0.140078267053196 	(obj:0)
_var7324_                          0.0768517329668793 	(obj:0)
_var7325_                           0.112949751301682 	(obj:0)
_var7326_                          0.0145784864042037 	(obj:0)
_var7327_                          0.0615189210887738 	(obj:0)
_var7328_                           0.208408141600513 	(obj:0)
_var7331_                         0.00853759975340586 	(obj:0)
_var7332_                          0.0224808046868902 	(obj:0)
_var7337_                          0.0297596179983109 	(obj:0)
_var7339_                           0.115120073827227 	(obj:0)
_var7341_                           0.179762841705847 	(obj:0)
_var7344_                          0.0888476858868722 	(obj:0)
_var7345_                          0.0385417280501354 	(obj:0)
_var7346_                           0.208378749897367 	(obj:0)
_var7349_                          0.0251559061407638 	(obj:0)
_var7351_                           0.124956744635036 	(obj:0)
_var7357_                           0.187475309151788 	(obj:0)
_var7358_                         0.00925897831537738 	(obj:0)
_var7359_                           0.096494693270283 	(obj:0)
_var7360_                          0.0633507131082221 	(obj:0)
_var7362_                          0.0132196660516677 	(obj:0)
_var7363_                           0.227491698347358 	(obj:0)
_var7364_                          0.0212682722068915 	(obj:0)
_var7366_                           0.116147327338777 	(obj:0)
_var7367_                          0.0918323541825619 	(obj:0)
_var7372_                          0.0760099946566504 	(obj:0)
_var7373_                          0.0603363452935318 	(obj:0)
_var7374_                         0.000985862747985802 	(obj:0)
_var7375_                          0.0959718914854532 	(obj:0)
_var7376_                          0.0343525603107996 	(obj:0)
_var7377_                           0.108661752067012 	(obj:0)
_var7378_                          0.0242775496702991 	(obj:0)
_var7382_                          0.0026262199857536 	(obj:0)
_var7383_                          0.0657973774320386 	(obj:0)
_var7384_                          0.0490063929642439 	(obj:0)
_var7385_                          0.0427337597758961 	(obj:0)
_var7386_                           0.136630292316813 	(obj:0)
_var7387_                           0.077519187920986 	(obj:0)
_var7390_                          0.0319883441606271 	(obj:0)
_var7392_                          0.0721230405588411 	(obj:0)
_var7394_                          0.0177194911756335 	(obj:0)
_var7395_                           0.161521097638112 	(obj:0)
_var7396_                          0.0175380156953794 	(obj:0)
_var7399_                           0.217798452290953 	(obj:0)
_var7400_                         0.00913843030399089 	(obj:0)
_var7401_                          0.0692164359618813 	(obj:0)
_var7403_                          0.0463151275532035 	(obj:0)
_var7404_                          0.0678553609480488 	(obj:0)
_var7405_                           0.031554859403243 	(obj:0)
_var7408_                          0.0803016030552881 	(obj:0)
_var7409_                           0.256161519696031 	(obj:0)
_var7414_                           0.122453016462244 	(obj:0)
_var7417_                           0.147017510889098 	(obj:0)
_var7418_                          0.0120463985081523 	(obj:0)
_var7423_                           0.102491408215251 	(obj:0)
_var7426_                          0.0412861435428947 	(obj:0)
_var7433_                           0.162213320183353 	(obj:0)
_var7434_                           0.147614757280872 	(obj:0)
_var7435_                          0.0961055627195312 	(obj:0)
_var7436_                          0.0559805436668841 	(obj:0)
_var7437_                             0.1518102761668 	(obj:0)
_var7439_                          0.0897740279770469 	(obj:0)
_var7441_                           0.130948270650309 	(obj:0)
_var7443_                          0.0347789565488988 	(obj:0)
_var7444_                          0.0589474520600618 	(obj:0)
_var7446_                          0.0127195329336698 	(obj:0)
_var7449_                          0.0375768781748864 	(obj:0)
_var7450_                           0.114575956735278 	(obj:0)
_var7452_                          0.0116561662969033 	(obj:0)
_var7453_                          0.0243736970305546 	(obj:0)
_var7457_                          0.0386012274593403 	(obj:0)
_var7462_                          0.0479864990810556 	(obj:0)
_var7463_                           0.088745271650818 	(obj:0)
_var7465_                          0.0819539686371661 	(obj:0)
_var7466_                          0.0948573371723038 	(obj:0)
_var7467_                          0.0361569685454739 	(obj:0)
_var7469_                          0.0102945145655156 	(obj:0)
_var7472_                          0.0909928541841123 	(obj:0)
_var7473_                          0.0577635231326989 	(obj:0)
_var7474_                          0.0234656595590932 	(obj:0)
_var7475_                         0.00135055890282731 	(obj:0)
_var7476_                         0.000576645035399048 	(obj:0)
_var7477_                          0.0241109413294927 	(obj:0)
_var7479_                          0.0481958460439791 	(obj:0)
_var7480_                          0.0562718405266999 	(obj:0)
_var7481_                           0.147156960147265 	(obj:0)
_var7482_                          0.0221719955339101 	(obj:0)
_var7483_                          0.0307143425949517 	(obj:0)
_var7484_                         0.000302331245814209 	(obj:0)
_var7488_                         0.00580476114659256 	(obj:0)
_var7490_                         0.000243492763999846 	(obj:0)
_var7492_                          0.0092071766754903 	(obj:0)
_var7495_                           0.129261710667306 	(obj:0)
_var7497_                          0.0887336595734937 	(obj:0)
_var7498_                          0.0487893174727306 	(obj:0)
_var7499_                           0.153372240177717 	(obj:0)
_var7500_                          0.0301621672542811 	(obj:0)
_var7501_                          0.0102480211577432 	(obj:0)
_var7502_                           0.031053705591758 	(obj:0)
_var7503_                           0.026251150409271 	(obj:0)
_var7507_                          0.0455537815991805 	(obj:0)
_var7508_                          0.0718314669620883 	(obj:0)
_var7509_                          0.0212576027396005 	(obj:0)
_var7510_                          0.0468896240249967 	(obj:0)
_var7514_                          0.0394267126072516 	(obj:0)
_var7515_                           0.100662012502328 	(obj:0)
_var7518_                           0.118206589514958 	(obj:0)
_var7526_                          0.0874400589562491 	(obj:0)
_var7530_                          0.0165517259458921 	(obj:0)
_var7531_                          0.0345722393837853 	(obj:0)
_var7534_                          0.0088645435707227 	(obj:0)
_var7535_                          0.0525751560237401 	(obj:0)
_var7539_                         0.00269973530800349 	(obj:0)
_var7540_                          0.0461879374973372 	(obj:0)
_var7541_                          0.0714392177965486 	(obj:0)
_var7543_                          0.0449308940067606 	(obj:0)
_var7544_                          0.0171882978696213 	(obj:0)
_var7545_                          0.0373040126539966 	(obj:0)
_var7546_                          0.0556883973320017 	(obj:0)
_var7550_                          0.0594292084900683 	(obj:0)
_var7552_                          0.0370787650315687 	(obj:0)
_var7558_                          0.0380920830304669 	(obj:0)
_var7559_                          0.0609541023683443 	(obj:0)
_var7566_                          0.0636470114388764 	(obj:0)
_var7567_                          0.0159095564026474 	(obj:0)
_var7568_                          0.0113057291043389 	(obj:0)
_var7572_                         0.00268373986197651 	(obj:0)
_var7574_                          0.0023338734939068 	(obj:0)
_var7575_                          0.0164670279980777 	(obj:0)
_var7577_                           0.070882012301769 	(obj:0)
_var7580_                         0.00749613387497206 	(obj:0)
_var7583_                         0.00293976467009071 	(obj:0)
_var7589_                         0.00139654308626314 	(obj:0)
_var7591_                         0.00773766791211023 	(obj:0)
